(set-info :smt-lib-version 2.6)
(set-logic UFNIRA)
(set-info :source |
Generated by: Mirek Olšák, Mikoláš Janota, Chad E. Brown
Generated on: 2024-04-14
Application: Mathematics challenges involving function synthesis
Publications: https://arxiv.org/abs/2404.12048
From a collection by: Vít Musil
Source url: https://prase.cz/library/FunkcionalniRovniceVM/FunkcionalniRovniceVM.pdf
Problem number: Úloha 88
Original source: PraSe-31-4-8
|)
(set-info :license "https://creativecommons.org/licenses/by-nc/4.0/")
(set-info :category "crafted")
(set-info :status unsat)

; Special functions
(declare-fun rabs (Real) Real)
(assert (forall ((x Real)) (=> (>= x 0.0) (= (rabs x) x))))
(assert (forall ((x Real)) (=> (<= x 0.0) (= (rabs x) (- x)))))

; Header
(declare-fun f (Real) Real)

; Equations
(assert (forall ((x Real)) (=> (distinct x 3.0) (= (f (f x)) (/ 1.0 (rabs (- x 3.0)))))))

; Find all possible f

; No Solutions

(check-sat)
(exit)
